c Random generated cnf formula, satisfiable: true
p cnf 10 50
9 -2 6 0
10 1 6 0
-7 5 -2 0
9 2 4 0
-7 -3 -4 0
-9 1 6 0
3 -9 4 0
-9 5 10 0
3 9 4 0
6 -9 8 0
2 3 -7 0
-9 -5 -6 0
-9 -10 7 0
-10 -3 6 0
-10 -7 -9 0
-3 6 1 0
2 5 -8 0
9 -4 -2 0
5 -2 -9 0
-2 -9 4 0
-3 4 -9 0
4 8 5 0
-4 5 -7 0
6 7 3 0
-2 -10 -6 0
-1 -10 -2 0
3 -9 7 0
9 -8 2 0
3 6 -7 0
9 -4 10 0
3 -4 1 0
-2 -7 -10 0
5 -7 -4 0
-3 8 -7 0
3 5 -10 0
3 -7 4 0
-10 -8 -4 0
-9 -5 -8 0
4 10 8 0
-7 -2 -9 0
2 3 10 0
-6 5 10 0
-5 6 1 0
9 -3 5 0
-3 5 -9 0
-9 7 -6 0
8 -1 -7 0
-10 9 6 0
5 -8 4 0
5 -2 6 0
